50, 2476467
100056, 966
100040, 12
100050, 736
100018, 159
100095, 987
100035, 17
100023, 880
100031, 682
100083, 858
100032, 1000
100091, 240
100033, 339
100044, 709
100007, 281
100091, 264
100080, 229
100047, 858
100011, 875
100049, 798
100037, 224
100084, 925
100093, 512
100074, 232
100029, 456
100004, 420
100090, 79
100095, 565
100015, 360
100050, 570
100048, 931
100098, 646
100004, 406
100006, 864
100085, 996
100057, 491
100046, 946
100078, 19
100059, 141
100069, 173
100025, 939
100008, 691
100000, 720
100033, 287
100065, 495
100038, 888
100035, 100
100062, 117
100071, 48
100060, 469
100031, 841
